(declare-fun x () String)

(assert (str.in.re x (re.++  (str.to.re "\x4e01") (re.++ (re.*  (str.to.re "\x4e02") ) (re.++ (re.*  (str.to.re "\x4e03") ) (re.++ (re.*  (str.to.re "\x4e04") ) (re.++ (re.*  (str.to.re "\x4e05") ) (re.++ (re.*  (str.to.re "\x4e06") ) (re.++ (re.*  (str.to.re "\x4e07") ) (re.++ (re.*  (str.to.re "\x4e08") ) (re.++ (re.*  (str.to.re "\x4e09") ) (re.++ (re.*  (str.to.re "\x4e0a") ) (re.++ (re.*  (str.to.re "\x4e0b") ) (re.++ (re.*  (str.to.re "\x4e0c") ) (re.++ (re.*  (str.to.re "\x4e0d") ) (re.++ (re.*  (str.to.re "\x4e0e") ) (re.++ (re.*  (str.to.re "\x4e0f") ) (re.++ (re.*  (str.to.re "\x4e10") ) (re.++ (re.*  (str.to.re "\x4e11") ) (re.++ (re.*  (str.to.re "\x4e12") ) (re.++ (re.*  (str.to.re "\x4e13") ) (re.++ (re.*  (str.to.re "\x4e14") ) (re.++ (re.*  (str.to.re "\x4e15") ) (re.++ (re.*  (str.to.re "\x4e16") ) (re.++ (re.*  (str.to.re "\x4e17") ) (re.++ (re.*  (str.to.re "\x4e18") ) (re.++ (re.*  (str.to.re "\x4e19") ) (re.++ (re.*  (str.to.re "\x4e1a") ) (re.++ (re.*  (str.to.re "\x4e1b") ) (re.++ (re.*  (str.to.re "\x4e1c") ) (re.++ (re.*  (str.to.re "\x4e1d") ) (re.++ (re.*  (str.to.re "\x4e1e") ) (re.++ (re.*  (str.to.re "\x4e1f") ) (re.++ (re.*  (str.to.re "\x4e20") ) (re.++ (re.*  (str.to.re "\x4e21") ) (re.++ (re.*  (str.to.re "\x4e22") ) (re.++ (re.*  (str.to.re "\x4e23") ) (re.++ (re.*  (str.to.re "\x4e24") ) (re.++ (re.*  (str.to.re "\x4e25") ) (re.++ (re.*  (str.to.re "\x4e26") ) (re.++ (re.*  (str.to.re "\x4e27") ) (re.++ (re.*  (str.to.re "\x4e28") ) (re.++ (re.*  (str.to.re "\x4e29") ) (re.++ (re.*  (str.to.re "\x4e2a") ) (re.++ (re.*  (str.to.re "\x4e2b") ) (re.++ (re.*  (str.to.re "\x4e2c") ) (re.++ (re.*  (str.to.re "\x4e2d") ) (re.++ (re.*  (str.to.re "\x4e2e") ) (re.++ (re.*  (str.to.re "\x4e2f") ) (re.++ (re.*  (str.to.re "\x4e30") ) (re.++ (re.*  (str.to.re "\x4e31") ) (re.++ (re.*  (str.to.re "\x4e32") ) (re.++ (re.*  (str.to.re "\x4e33") ) (re.++ (re.*  (str.to.re "\x4e34") ) (re.++ (re.*  (str.to.re "\x4e35") ) (re.++ (re.*  (str.to.re "\x4e36") ) (re.++ (re.*  (str.to.re "\x4e37") ) (re.++ (re.*  (str.to.re "\x4e38") ) (re.++ (re.*  (str.to.re "\x4e39") ) (re.++ (re.*  (str.to.re "\x4e3a") ) (re.++ (re.*  (str.to.re "\x4e3b") ) (re.++ (re.*  (str.to.re "\x4e3c") ) (re.++ (re.*  (str.to.re "\x4e3d") ) (re.++ (re.*  (str.to.re "\x4e3e") ) (re.++ (re.*  (str.to.re "\x4e3f") ) (re.++ (re.*  (str.to.re "\x4e40") ) (re.++ (re.*  (str.to.re "\x4e41") ) (re.++ (re.*  (str.to.re "\x4e42") ) (re.++ (re.*  (str.to.re "\x4e43") ) (re.++ (re.*  (str.to.re "\x4e44") ) (re.++ (re.*  (str.to.re "\x4e45") ) (re.++ (re.*  (str.to.re "\x4e46") ) (re.++ (re.*  (str.to.re "\x4e47") ) (re.++ (re.*  (str.to.re "\x4e48") ) (re.++ (re.*  (str.to.re "\x4e49") ) (re.++ (re.*  (str.to.re "\x4e4a") ) (re.++ (re.*  (str.to.re "\x4e4b") ) (re.++ (re.*  (str.to.re "\x4e4c") ) (re.++ (re.*  (str.to.re "\x4e4d") ) (re.++ (re.*  (str.to.re "\x4e4e") ) (re.++ (re.*  (str.to.re "\x4e4f") ) (re.++ (re.*  (str.to.re "\x4e50") ) (re.++ (re.*  (str.to.re "\x4e51") ) (re.++ (re.*  (str.to.re "\x4e52") ) (re.++ (re.*  (str.to.re "\x4e53") ) (re.++ (re.*  (str.to.re "\x4e54") ) (re.++ (re.*  (str.to.re "\x4e55") ) (re.++ (re.*  (str.to.re "\x4e56") ) (re.++ (re.*  (str.to.re "\x4e57") ) (re.++ (re.*  (str.to.re "\x4e58") ) (re.++ (re.*  (str.to.re "\x4e59") ) (re.++ (re.*  (str.to.re "\x4e5a") ) (re.++ (re.*  (str.to.re "\x4e5b") ) (re.++ (re.*  (str.to.re "\x4e5c") ) (re.++ (re.*  (str.to.re "\x4e5d") ) (re.++ (re.*  (str.to.re "\x4e5e") ) (re.++ (re.*  (str.to.re "\x4e5f") ) (re.++ (re.*  (str.to.re "\x4e60") ) (re.++ (re.*  (str.to.re "\x4e61") ) (re.++ (re.*  (str.to.re "\x4e62") ) (re.++ (re.*  (str.to.re "\x4e63") ) (re.++ (re.*  (str.to.re "\x4e64") ) (re.++ (re.*  (str.to.re "\x4e65") ) (re.++ (re.*  (str.to.re "\x4e66") ) (re.++ (re.*  (str.to.re "\x4e67") ) (re.++ (re.*  (str.to.re "\x4e68") ) (re.++ (re.*  (str.to.re "\x4e69") ) (re.++ (re.*  (str.to.re "\x4e6a") ) (re.++ (re.*  (str.to.re "\x4e6b") ) (re.++ (re.*  (str.to.re "\x4e6c") ) (re.++ (re.*  (str.to.re "\x4e6d") ) (re.++ (re.*  (str.to.re "\x4e6e") ) (re.++ (re.*  (str.to.re "\x4e6f") ) (re.++ (re.*  (str.to.re "\x4e70") ) (re.++ (re.*  (str.to.re "\x4e71") ) (re.++ (re.*  (str.to.re "\x4e72") ) (re.++ (re.*  (str.to.re "\x4e73") ) (re.++ (re.*  (str.to.re "\x4e74") ) (re.++ (re.*  (str.to.re "\x4e75") ) (re.++ (re.*  (str.to.re "\x4e76") ) (re.++ (re.*  (str.to.re "\x4e77") ) (re.++ (re.*  (str.to.re "\x4e78") ) (re.++ (re.*  (str.to.re "\x4e79") ) (re.++ (re.*  (str.to.re "\x4e7a") ) (re.++ (re.*  (str.to.re "\x4e7b") ) (re.++ (re.*  (str.to.re "\x4e7c") ) (re.++ (re.*  (str.to.re "\x4e7d") ) (re.++ (re.*  (str.to.re "\x4e7e") ) (re.++ (re.*  (str.to.re "\x4e7f") ) (re.++ (re.*  (str.to.re "\x4e80") ) (re.++ (re.*  (str.to.re "\x4e81") ) (re.++ (re.*  (str.to.re "\x4e82") ) (re.++ (re.*  (str.to.re "\x4e83") ) (re.++ (re.*  (str.to.re "\x4e84") ) (re.++ (re.*  (str.to.re "\x4e85") ) (re.++ (re.*  (str.to.re "\x4e86") ) (re.++ (re.*  (str.to.re "\x4e87") ) (re.++ (re.*  (str.to.re "\x4e88") ) (re.++ (re.*  (str.to.re "\x4e89") ) (re.++ (re.*  (str.to.re "\x4e8a") ) (re.++ (re.*  (str.to.re "\x4e8b") ) (re.++ (re.*  (str.to.re "\x4e8c") ) (re.++ (re.*  (str.to.re "\x4e8d") ) (re.++ (re.*  (str.to.re "\x4e8e") ) (re.++ (re.*  (str.to.re "\x4e8f") ) (re.++ (re.*  (str.to.re "\x4e90") ) (re.++ (re.*  (str.to.re "\x4e91") ) (re.++ (re.*  (str.to.re "\x4e92") ) (re.++ (re.*  (str.to.re "\x4e93") ) (re.++ (re.*  (str.to.re "\x4e94") ) (re.++ (re.*  (str.to.re "\x4e95") ) (re.++ (re.*  (str.to.re "\x4e96") ) (re.++ (re.*  (str.to.re "\x4e97") ) (re.++ (re.*  (str.to.re "\x4e98") ) (re.++ (re.*  (str.to.re "\x4e99") ) (re.++ (re.*  (str.to.re "\x4e9a") ) (re.++ (re.*  (str.to.re "\x4e9b") ) (re.++ (re.*  (str.to.re "\x4e9c") ) (re.++ (re.*  (str.to.re "\x4e9d") ) (re.++ (re.*  (str.to.re "\x4e9e") ) (re.++ (re.*  (str.to.re "\x4e9f") ) (re.++ (re.*  (str.to.re "\x4ea0") ) (re.++ (re.*  (str.to.re "\x4ea1") ) (re.++ (re.*  (str.to.re "\x4ea2") ) (re.++ (re.*  (str.to.re "\x4ea3") ) (re.++ (re.*  (str.to.re "\x4ea4") ) (re.++ (re.*  (str.to.re "\x4ea5") ) (re.++ (re.*  (str.to.re "\x4ea6") ) (re.++ (re.*  (str.to.re "\x4ea7") ) (re.++ (re.*  (str.to.re "\x4ea8") ) (re.++ (re.*  (str.to.re "\x4ea9") ) (re.++ (re.*  (str.to.re "\x4eaa") ) (re.++ (re.*  (str.to.re "\x4eab") ) (re.++ (re.*  (str.to.re "\x4eac") ) (re.++ (re.*  (str.to.re "\x4ead") ) (re.++ (re.*  (str.to.re "\x4eae") ) (re.++ (re.*  (str.to.re "\x4eaf") ) (re.++ (re.*  (str.to.re "\x4eb0") ) (re.++ (re.*  (str.to.re "\x4eb1") ) (re.++ (re.*  (str.to.re "\x4eb2") ) (re.++ (re.*  (str.to.re "\x4eb3") ) (re.++ (re.*  (str.to.re "\x4eb4") ) (re.++ (re.*  (str.to.re "\x4eb5") ) (re.++ (re.*  (str.to.re "\x4eb6") ) (re.++ (re.*  (str.to.re "\x4eb7") ) (re.++ (re.*  (str.to.re "\x4eb8") ) (re.++ (re.*  (str.to.re "\x4eb9") ) (re.++ (re.*  (str.to.re "\x4eba") ) (re.++ (re.*  (str.to.re "\x4ebb") ) (re.++ (re.*  (str.to.re "\x4ebc") ) (re.++ (re.*  (str.to.re "\x4ebd") ) (re.++ (re.*  (str.to.re "\x4ebe") ) (re.++ (re.*  (str.to.re "\x4ebf") ) (re.++ (re.*  (str.to.re "\x4ec0") ) (re.++ (re.*  (str.to.re "\x4ec1") ) (re.++ (re.*  (str.to.re "\x4ec2") ) (re.++ (re.*  (str.to.re "\x4ec3") ) (re.++ (re.*  (str.to.re "\x4ec4") ) (re.++ (re.*  (str.to.re "\x4ec5") ) (re.++ (re.*  (str.to.re "\x4ec6") ) (re.++ (re.*  (str.to.re "\x4ec7") ) (re.++ (re.*  (str.to.re "\x4ec8") ) (re.++ (re.*  (str.to.re "\x4ec9") ) (re.++ (re.*  (str.to.re "\x4eca") ) (re.++ (re.*  (str.to.re "\x4ecb") ) (re.++ (re.*  (str.to.re "\x4ecc") ) (re.++ (re.*  (str.to.re "\x4ecd") ) (re.++ (re.*  (str.to.re "\x4ece") ) (re.++ (re.*  (str.to.re "\x4ecf") ) (re.++ (re.*  (str.to.re "\x4ed0") ) (re.++ (re.*  (str.to.re "\x4ed1") ) (re.++ (re.*  (str.to.re "\x4ed2") ) (re.++ (re.*  (str.to.re "\x4ed3") ) (re.++ (re.*  (str.to.re "\x4ed4") ) (re.++ (re.*  (str.to.re "\x4ed5") ) (re.++ (re.*  (str.to.re "\x4ed6") ) (re.++ (re.*  (str.to.re "\x4ed7") ) (re.++ (re.*  (str.to.re "\x4ed8") ) (re.++ (re.*  (str.to.re "\x4ed9") ) (re.++ (re.*  (str.to.re "\x4eda") ) (re.++ (re.*  (str.to.re "\x4edb") ) (re.++ (re.*  (str.to.re "\x4edc") ) (re.++ (re.*  (str.to.re "\x4edd") ) (re.++ (re.*  (str.to.re "\x4ede") ) (re.++ (re.*  (str.to.re "\x4edf") ) (re.++ (re.*  (str.to.re "\x4ee0") ) (re.++ (re.*  (str.to.re "\x4ee1") ) (re.++ (re.*  (str.to.re "\x4ee2") ) (re.++ (re.*  (str.to.re "\x4ee3") ) (re.++ (re.*  (str.to.re "\x4ee4") ) (re.++ (re.*  (str.to.re "\x4ee5") ) (re.++ (re.*  (str.to.re "\x4ee6") ) (re.++ (re.*  (str.to.re "\x4ee7") ) (re.++ (re.*  (str.to.re "\x4ee8") ) (re.++ (re.*  (str.to.re "\x4ee9") ) (re.++ (re.*  (str.to.re "\x4eea") ) (re.++ (re.*  (str.to.re "\x4eeb") ) (re.++ (re.*  (str.to.re "\x4eec") ) (re.++ (re.*  (str.to.re "\x4eed") ) (re.++ (re.*  (str.to.re "\x4eee") ) (re.++ (re.*  (str.to.re "\x4eef") ) (re.++ (re.*  (str.to.re "\x4ef0") ) (re.++ (re.*  (str.to.re "\x4ef1") ) (re.++ (re.*  (str.to.re "\x4ef2") ) (re.++ (re.*  (str.to.re "\x4ef3") ) (re.++ (re.*  (str.to.re "\x4ef4") ) (re.*  (str.to.re "\x4ef5") )))))))))))))))))))))))))))))))))))))))))))))))))))))))))))))))))))))))))))))))))))))))))))))))))))))))))))))))))))))))))))))))))))))))))))))))))))))))))))))))))))))))))))))))))))))))))))))))))))))))))))))))))))))))))))))))))))))))))))))))))))))))
(assert (str.in.re x (re.*  (re.union  (str.to.re "\x4e01") (re.union  (str.to.re "\x4e02") (re.union  (str.to.re "\x4e03") (re.union  (str.to.re "\x4e04") (re.union  (str.to.re "\x4e05") (re.union  (str.to.re "\x4e06") (re.union  (str.to.re "\x4e07") (re.union  (str.to.re "\x4e08") (re.union  (str.to.re "\x4e09") (re.union  (str.to.re "\x4e0a") (re.union  (str.to.re "\x4e0b") (re.union  (str.to.re "\x4e0c") (re.union  (str.to.re "\x4e0d") (re.union  (str.to.re "\x4e0e") (re.union  (str.to.re "\x4e0f") (re.union  (str.to.re "\x4e10") (re.union  (str.to.re "\x4e11") (re.union  (str.to.re "\x4e12") (re.union  (str.to.re "\x4e13") (re.union  (str.to.re "\x4e14") (re.union  (str.to.re "\x4e15") (re.union  (str.to.re "\x4e16") (re.union  (str.to.re "\x4e17") (re.union  (str.to.re "\x4e18") (re.union  (str.to.re "\x4e19") (re.union  (str.to.re "\x4e1a") (re.union  (str.to.re "\x4e1b") (re.union  (str.to.re "\x4e1c") (re.union  (str.to.re "\x4e1d") (re.union  (str.to.re "\x4e1e") (re.union  (str.to.re "\x4e1f") (re.union  (str.to.re "\x4e20") (re.union  (str.to.re "\x4e21") (re.union  (str.to.re "\x4e22") (re.union  (str.to.re "\x4e23") (re.union  (str.to.re "\x4e24") (re.union  (str.to.re "\x4e25") (re.union  (str.to.re "\x4e26") (re.union  (str.to.re "\x4e27") (re.union  (str.to.re "\x4e28") (re.union  (str.to.re "\x4e29") (re.union  (str.to.re "\x4e2a") (re.union  (str.to.re "\x4e2b") (re.union  (str.to.re "\x4e2c") (re.union  (str.to.re "\x4e2d") (re.union  (str.to.re "\x4e2e") (re.union  (str.to.re "\x4e2f") (re.union  (str.to.re "\x4e30") (re.union  (str.to.re "\x4e31") (re.union  (str.to.re "\x4e32") (re.union  (str.to.re "\x4e33") (re.union  (str.to.re "\x4e34") (re.union  (str.to.re "\x4e35") (re.union  (str.to.re "\x4e36") (re.union  (str.to.re "\x4e37") (re.union  (str.to.re "\x4e38") (re.union  (str.to.re "\x4e39") (re.union  (str.to.re "\x4e3a") (re.union  (str.to.re "\x4e3b") (re.union  (str.to.re "\x4e3c") (re.union  (str.to.re "\x4e3d") (re.union  (str.to.re "\x4e3e") (re.union  (str.to.re "\x4e3f") (re.union  (str.to.re "\x4e40") (re.union  (str.to.re "\x4e41") (re.union  (str.to.re "\x4e42") (re.union  (str.to.re "\x4e43") (re.union  (str.to.re "\x4e44") (re.union  (str.to.re "\x4e45") (re.union  (str.to.re "\x4e46") (re.union  (str.to.re "\x4e47") (re.union  (str.to.re "\x4e48") (re.union  (str.to.re "\x4e49") (re.union  (str.to.re "\x4e4a") (re.union  (str.to.re "\x4e4b") (re.union  (str.to.re "\x4e4c") (re.union  (str.to.re "\x4e4d") (re.union  (str.to.re "\x4e4e") (re.union  (str.to.re "\x4e4f") (re.union  (str.to.re "\x4e50") (re.union  (str.to.re "\x4e51") (re.union  (str.to.re "\x4e52") (re.union  (str.to.re "\x4e53") (re.union  (str.to.re "\x4e54") (re.union  (str.to.re "\x4e55") (re.union  (str.to.re "\x4e56") (re.union  (str.to.re "\x4e57") (re.union  (str.to.re "\x4e58") (re.union  (str.to.re "\x4e59") (re.union  (str.to.re "\x4e5a") (re.union  (str.to.re "\x4e5b") (re.union  (str.to.re "\x4e5c") (re.union  (str.to.re "\x4e5d") (re.union  (str.to.re "\x4e5e") (re.union  (str.to.re "\x4e5f") (re.union  (str.to.re "\x4e60") (re.union  (str.to.re "\x4e61") (re.union  (str.to.re "\x4e62") (re.union  (str.to.re "\x4e63") (re.union  (str.to.re "\x4e64") (re.union  (str.to.re "\x4e65") (re.union  (str.to.re "\x4e66") (re.union  (str.to.re "\x4e67") (re.union  (str.to.re "\x4e68") (re.union  (str.to.re "\x4e69") (re.union  (str.to.re "\x4e6a") (re.union  (str.to.re "\x4e6b") (re.union  (str.to.re "\x4e6c") (re.union  (str.to.re "\x4e6d") (re.union  (str.to.re "\x4e6e") (re.union  (str.to.re "\x4e6f") (re.union  (str.to.re "\x4e70") (re.union  (str.to.re "\x4e71") (re.union  (str.to.re "\x4e72") (re.union  (str.to.re "\x4e73") (re.union  (str.to.re "\x4e74") (re.union  (str.to.re "\x4e75") (re.union  (str.to.re "\x4e76") (re.union  (str.to.re "\x4e77") (re.union  (str.to.re "\x4e78") (re.union  (str.to.re "\x4e79") (re.union  (str.to.re "\x4e7a") (re.union  (str.to.re "\x4e7b") (re.union  (str.to.re "\x4e7c") (re.union  (str.to.re "\x4e7d") (re.union  (str.to.re "\x4e7e") (re.union  (str.to.re "\x4e7f") (re.union  (str.to.re "\x4e80") (re.union  (str.to.re "\x4e81") (re.union  (str.to.re "\x4e82") (re.union  (str.to.re "\x4e83") (re.union  (str.to.re "\x4e84") (re.union  (str.to.re "\x4e85") (re.union  (str.to.re "\x4e86") (re.union  (str.to.re "\x4e87") (re.union  (str.to.re "\x4e88") (re.union  (str.to.re "\x4e89") (re.union  (str.to.re "\x4e8a") (re.union  (str.to.re "\x4e8b") (re.union  (str.to.re "\x4e8c") (re.union  (str.to.re "\x4e8d") (re.union  (str.to.re "\x4e8e") (re.union  (str.to.re "\x4e8f") (re.union  (str.to.re "\x4e90") (re.union  (str.to.re "\x4e91") (re.union  (str.to.re "\x4e92") (re.union  (str.to.re "\x4e93") (re.union  (str.to.re "\x4e94") (re.union  (str.to.re "\x4e95") (re.union  (str.to.re "\x4e96") (re.union  (str.to.re "\x4e97") (re.union  (str.to.re "\x4e98") (re.union  (str.to.re "\x4e99") (re.union  (str.to.re "\x4e9a") (re.union  (str.to.re "\x4e9b") (re.union  (str.to.re "\x4e9c") (re.union  (str.to.re "\x4e9d") (re.union  (str.to.re "\x4e9e") (re.union  (str.to.re "\x4e9f") (re.union  (str.to.re "\x4ea0") (re.union  (str.to.re "\x4ea1") (re.union  (str.to.re "\x4ea2") (re.union  (str.to.re "\x4ea3") (re.union  (str.to.re "\x4ea4") (re.union  (str.to.re "\x4ea5") (re.union  (str.to.re "\x4ea6") (re.union  (str.to.re "\x4ea7") (re.union  (str.to.re "\x4ea8") (re.union  (str.to.re "\x4ea9") (re.union  (str.to.re "\x4eaa") (re.union  (str.to.re "\x4eab") (re.union  (str.to.re "\x4eac") (re.union  (str.to.re "\x4ead") (re.union  (str.to.re "\x4eae") (re.union  (str.to.re "\x4eaf") (re.union  (str.to.re "\x4eb0") (re.union  (str.to.re "\x4eb1") (re.union  (str.to.re "\x4eb2") (re.union  (str.to.re "\x4eb3") (re.union  (str.to.re "\x4eb4") (re.union  (str.to.re "\x4eb5") (re.union  (str.to.re "\x4eb6") (re.union  (str.to.re "\x4eb7") (re.union  (str.to.re "\x4eb8") (re.union  (str.to.re "\x4eb9") (re.union  (str.to.re "\x4eba") (re.union  (str.to.re "\x4ebb") (re.union  (str.to.re "\x4ebc") (re.union  (str.to.re "\x4ebd") (re.union  (str.to.re "\x4ebe") (re.union  (str.to.re "\x4ebf") (re.union  (str.to.re "\x4ec0") (re.union  (str.to.re "\x4ec1") (re.union  (str.to.re "\x4ec2") (re.union  (str.to.re "\x4ec3") (re.union  (str.to.re "\x4ec4") (re.union  (str.to.re "\x4ec5") (re.union  (str.to.re "\x4ec6") (re.union  (str.to.re "\x4ec7")  (str.to.re "\x4ec8")))))))))))))))))))))))))))))))))))))))))))))))))))))))))))))))))))))))))))))))))))))))))))))))))))))))))))))))))))))))))))))))))))))))))))))))))))))))))))))))))))))))))))))))))))))))))))))))))))))))) )))
(check-sat)
(get-model)